NAME: ACTUAL_TOURS/amz0009
TYPE: TOUR
COMMENT: RouteID_00eac154-7941-45ac-9dc4-160fc5716fa1
DIMENSION: 113
TOUR_SECTION
69
80
33
47
18
75
2
74
81
61
29
23
22
106
41
60
54
30
14
1
13
16
36
113
85
83
63
87
59
38
58
112
92
26
84
28
82
19
107
51
95
8
55
50
25
52
90
32
12
24
56
27
111
91
7
79
89
101
6
66
73
102
110
105
37
77
11
21
20
40
97
39
100
15
48
86
5
76
99
57
72
94
46
62
71
88
4
44
64
70
98
53
67
93
49
10
17
68
35
3
104
65
103
45
109
9
108
96
31
43
78
34
42
-1
EOF
